NAME          BLANK   
ROWS
 N  OBJROW
 L  R0000000
COLUMNS
    C0000000  OBJROW     -232.         R0000000  288.        
    C0000001  OBJROW     -997.         R0000000  15.         
    C0000002  OBJROW     -1000.        R0000000  103.        
    C0000003  OBJROW     -803.         R0000000  66.         
    C0000004  OBJROW     -430.         R0000000  178.        
    C0000005  OBJROW     -189.         R0000000  705.        
    C0000006  OBJROW     -870.         R0000000  640.        
    C0000007  OBJROW     -734.         R0000000  104.        
    C0000008  OBJROW     -935.         R0000000  360.        
    C0000009  OBJROW     -879.         R0000000  625.        
    C0000010  OBJROW     -878.         R0000000  449.        
    C0000011  OBJROW     -672.         R0000000  530.        
    C0000012  OBJROW     -962.         R0000000  737.        
    C0000013  OBJROW     -194.         R0000000  867.        
    C0000014  OBJROW     -585.         R0000000  728.        
    C0000015  OBJROW     -392.         R0000000  939.        
    C0000016  OBJROW     -67.          R0000000  312.        
    C0000017  OBJROW     -601.         R0000000  82.         
RHS
    RHS       R0000000  15551.      
BOUNDS
 BV BOUND     C0000000  1.          
 BV BOUND     C0000001  1.          
 BV BOUND     C0000002  1.          
 BV BOUND     C0000003  1.          
 BV BOUND     C0000004  1.          
 BV BOUND     C0000005  1.          
 BV BOUND     C0000006  1.          
 BV BOUND     C0000007  1.          
 BV BOUND     C0000008  1.          
 BV BOUND     C0000009  1.          
 BV BOUND     C0000010  1.          
 BV BOUND     C0000011  1.          
 BV BOUND     C0000012  1.          
 BV BOUND     C0000013  1.          
 BV BOUND     C0000014  1.          
 BV BOUND     C0000015  1.          
 BV BOUND     C0000016  1.          
 BV BOUND     C0000017  1.          
ENDATA
